Set parameter TokenServer to value "hpc-licenses.hpcc.usc.edu"
Set parameter TimeLimit to value 3600
Gurobi Optimizer version 9.5.1 build v9.5.1rc2 (linux64)
Thread count: 20 physical cores, 20 logical processors, using up to 20 threads
Optimize a model with 6007 rows, 4529 columns and 24534 nonzeros
Model fingerprint: 0xc074332f
Variable types: 4506 continuous, 23 integer (23 binary)
Coefficient statistics:
  Matrix range     [1e+00, 1e+00]
  Objective range  [1e-03, 1e+00]
  Bounds range     [1e+00, 1e+00]
  RHS range        [1e+00, 1e+02]
Presolve removed 1520 rows and 1515 columns
Presolve time: 0.05s
Presolved: 4487 rows, 3014 columns, 21975 nonzeros
Variable types: 2994 continuous, 20 integer (20 binary)
Found heuristic solution: objective 260.7855460
Found heuristic solution: objective 260.8502890

Root relaxation: objective 2.700408e+02, 2234 iterations, 0.09 seconds (0.13 work units)

    Nodes    |    Current Node    |     Objective Bounds      |     Work
 Expl Unexpl |  Obj  Depth IntInf | Incumbent    BestBd   Gap | It/Node Time

     0     0  270.04079    0    2  260.85029  270.04079  3.52%     -    0s
     0     0  269.95476    0    2  260.85029  269.95476  3.49%     -    0s
H    0     0                     262.8004241  269.95476  2.72%     -    0s
     0     0  269.92209    0    2  262.80042  269.92209  2.71%     -    0s
     0     0  269.30875    0    3  262.80042  269.30875  2.48%     -    0s
     0     0  269.26900    0    3  262.80042  269.26900  2.46%     -    0s
     0     0  269.11200    0    3  262.80042  269.11200  2.40%     -    0s
     0     0  269.10284    0    3  262.80042  269.10284  2.40%     -    0s
     0     0  269.02902    0    5  262.80042  269.02902  2.37%     -    0s
     0     0  268.99760    0    2  262.80042  268.99760  2.36%     -    0s
     0     0  268.97846    0    5  262.80042  268.97846  2.35%     -    0s
     0     0  268.65137    0    2  262.80042  268.65137  2.23%     -    0s
     0     0  268.65137    0    3  262.80042  268.65137  2.23%     -    0s
     0     0  268.65137    0    5  262.80042  268.65137  2.23%     -    0s
     0     0  268.65137    0    5  262.80042  268.65137  2.23%     -    0s
     0     0  268.65137    0    5  262.80042  268.65137  2.23%     -    0s
H    0     0                     267.8898928  268.65137  0.28%     -    0s
     0     0  268.65109    0    7  267.88989  268.65109  0.28%     -    0s
     0     0  268.65109    0    2  267.88989  268.65109  0.28%     -    0s
     0     0  268.52800    0    5  267.88989  268.52800  0.24%     -    0s
     0     0  268.52800    0    2  267.88989  268.52800  0.24%     -    1s
     0     0  268.52800    0    2  267.88989  268.52800  0.24%     -    1s
     0     0  268.52800    0    2  267.88989  268.52800  0.24%     -    2s
     0     0  268.52800    0    2  267.88989  268.52800  0.24%     -    2s
     0     0  268.52800    0    2  267.88989  268.52800  0.24%     -    2s
     0     0  268.52800    0    2  267.88989  268.52800  0.24%     -    2s
     0     0  268.52800    0    2  267.88989  268.52800  0.24%     -    2s
     0     0  268.52800    0    2  267.88989  268.52800  0.24%     -    2s
     0     0  268.52800    0    2  267.88989  268.52800  0.24%     -    2s
     0     0  268.52800    0    5  267.88989  268.52800  0.24%     -    2s
     0     0  268.52800    0    3  267.88989  268.52800  0.24%     -    2s
     0     0  268.52800    0    3  267.88989  268.52800  0.24%     -    2s
     0     0  268.52800    0    3  267.88989  268.52800  0.24%     -    2s
     0     0  268.52800    0    3  267.88989  268.52800  0.24%     -    2s
     0     0  268.40852    0    2  267.88989  268.40852  0.19%     -    2s

Cutting planes:
  Gomory: 1
  MIR: 443
  Flow cover: 55
  RLT: 8
  Relax-and-lift: 3

Explored 1 nodes (6248 simplex iterations) in 2.53 seconds (1.33 work units)
Thread count was 20 (of 20 available processors)

Solution count 4: 267.89 262.8 260.85 260.786 

Optimal solution found (tolerance 1.00e-04)
Best objective 2.678898927700e+02, best bound 2.678898927700e+02, gap 0.0000%



#########node  1
V1.8
#########node  2
0.0,1.0
#########node  3
0.9673366834170853,0.03266331658291466


Total Solving Time 2.8986358642578125
obj value 267.88989277004964
Policy Regret train (Sum) 13.487813242844421
Best Treatment Found train (%) 49.0
treatment classification acc train (%) 64.4
Policy Regret test (Sum) 61.813832268000596
Best Treatment Found test (%) 75.11
treatment classification acc test (%) 61.01
